22 22
16
3 3 0 19
3 4 0 15
3 5 0 6
3 6 0 0
3 7 3 15
3 8 10 14
3 9 13 13
3 10 16 12
3 11 3 0
3 12 16 0
3 13 13 0
3 14 10 0
3 22 19 0
4 3 6 19
4 19 6 0
6 4 0 11
----------
==========
